10
0 30 28 29 32 48 13 66 18 68 
22 0 58 62 76 19 4 9 39 73 
35 81 0 65 80 80 74 65 75 29 
41 36 33 0 83 55 72 85 13 21 
69 84 18 92 0 70 97 75 95 31 
86 15 94 2 85 0 38 53 28 73 
89 57 9 94 94 95 0 47 58 82 
83 50 14 73 2 36 60 0 12 23 
51 94 10 30 15 31 36 27 0 18 
9 13 34 69 3 54 78 45 63 0 
